p cnf 14 64
6 9 10 0
4 9 10 0
4 -5 -14 0
1 -2 -11 0
6 8 13 0
7 -8 14 0
2 6 -12 0
2 3 -12 0
11 13 -14 0
-2 -5 -14 0
2 4 -7 0
-4 -12 14 0
9 -13 -14 0
-2 6 -11 0
-3 -6 -13 0
-8 -10 14 0
3 -9 13 0
-9 -11 14 0
5 -9 10 0
-8 9 14 0
-6 11 12 0
6 10 14 0
3 10 -13 0
1 4 -6 0
-1 -2 -5 0
-7 8 13 0
4 -8 -14 0
-3 -4 9 0
2 -12 -13 0
2 5 14 0
2 -10 -13 0
-2 -6 -8 0
-6 -9 -11 0
2 4 10 0
6 -7 -10 0
-1 -4 13 0
-3 4 11 0
2 -4 -10 0
2 5 9 0
8 -10 -14 0
6 9 13 0
-9 10 -12 0
1 -9 14 0
2 5 10 0
-1 11 -14 0
-10 -12 14 0
-3 -5 -12 0
3 4 -10 0
1 6 8 0
3 4 6 0
-4 5 -8 0
-1 -8 -11 0
3 -4 6 0
1 -11 13 0
-2 4 -8 0
3 -6 8 0
-3 -7 -12 0
-4 -10 -13 0
3 6 9 0
-6 10 12 0
1 5 -8 0
7 9 -12 0
-1 -3 12 0
-4 6 -7 0
